times,stress 3 C: 2,stress 4 C: 2,stress 5 C: 2,stress 10 C: 2,stress 11 C: 0.12,stress 8 C: 2,stress 9 C: 2,stress 12 C: 1,stress 13 C: 1,stress 20 C: 1,stress 21 C: 0.1,stress 16 C: 0.1,stress 17 C: 1,stress 18 C: 1,stress 19 C: 1,stress 22 C: 1,stress 23 C: 1,stress 24 C: 1,stress 25 C: 0.1,stress 26 C: 2,stress 40 C: 1,stress 44 C: 1,stress 30 C: 0.1,stress 32 C: 1,stress 35 C: 0.1,stress 37 C: 2,stress 38 C: 2,stress 39 C: 2
0,0,0,0,0,0,0,0,0,0,0,0,0,0,0,0,0,0,0,0,0,0,0,0,0,0,0,0,0
10,NaN,NaN,NaN,NaN,-0.0293658320249953,NaN,NaN,-0.00666475609669627,0.0185661951762929,0.0281613685924256,0.0116777367348153,0.0197843828327402,-0.0119446202964022,-0.0131914460003017,-0.00908867943128452,-0.0129384619720212,0.00816678975420521,0.0271287584887732,-0.00569981042383216,NaN,-0.004555039851868,-0.0236792950293658,0.0241654030320311,0.00593159453329484,0.0120024348416959,NaN,NaN,NaN
20,-0.0204515604314523,-0.0121257525029595,0.000984362444345965,-0.0177047496859437,-0.0103681752995053,-0.0436510460754981,-0.00518314849209656,0.0343132757374692,0.0105351450086125,-0.00129653844914884,0.0228182752904874,0.0194978395708909,-0.0356462297116709,-0.0189828305566298,-0.019951302453439,-0.00992326501267649,0.00974995911991794,0.0230882518112875,-0.00431110930338985,0.0116908849419972,0.0380482819427699,-0.0750612364857368,0.0466383187472091,0.0113843438831295,0.0329287457292289,0.00471895416806778,-0.0251982260114189,-0.0118893602599321
30,NaN,NaN,NaN,NaN,0.00952030376780899,NaN,NaN,0.000883658447225162,0.0159118789377831,-0.0112933082010228,0.0262024985980688,0.0339017255827862,-0.0530201454607158,-0.0232124334975944,-0.00838466180825914,-0.0299523672863257,0.0161626528150467,0.035671962631441,0.00746567725886194,NaN,0.000387058175228772,-0.0915040087242667,0.0533531707654784,-0.0219288303798919,0.0513463786864692,NaN,NaN,NaN
40,-0.0355960536486446,-0.0114629075515663,-0.0225240058916561,-0.0196069822126022,0.0264429229579652,-0.0768364948973245,-0.0152654442011627,-0.0113916948579332,-0.00304684031129572,0.0158774243739156,0.0387392515354301,0.0779949020384518,-0.0209290532278879,-0.0211115628656738,0.000936765934347883,-0.0319666726265815,0.0405398045932156,0.028324368795174,0.00491580161273303,0.00661242122327182,0.00345459752125921,-0.0529196555915408,0.0638648493547968,0.00480861241894592,0.0132183309534629,-0.000189709846480701,-0.031641223193576,0.0156501231769972
50,NaN,NaN,NaN,NaN,0.0457325951039127,NaN,NaN,0.014398750697833,0.014059955208433,-0.0142465207550818,0.0392020684282303,0.0757234302878215,-0.0170984169812284,-0.0501470868820576,-0.0151520816110515,-0.0359920275605529,0.0497168775430682,0.0200838238597298,0.0258094298138425,NaN,-0.0150126229602097,-0.0417875068442606,0.0493076552471615,-0.0210993663382498,0.0101070894711804,NaN,NaN,NaN
60,-0.0467059756647362,-0.0422173906085959,-0.0680168027407761,0.00413805385267285,0.0245358068114964,-0.0851457861731766,-0.0211266645207795,-0.00207906589557227,-0.0175518297753681,-0.020280546083374,NaN,0.0559354110366379,-0.0358423258302113,-0.0686451117346383,-0.00780939643879904,-0.0180042783676479,0.0385216174013156,0.00621309138800658,0.0416970972672579,-0.0413486071664291,0.00920336936421617,-0.0276212527634985,0.0392676842431186,-0.0274759963793942,-0.00867443577244464,5.30937128103703e-05,-0.011723818070462,-0.0230728496257316
60,NaN,NaN,NaN,NaN,NaN,NaN,NaN,NaN,NaN,NaN,NaN,NaN,NaN,NaN,NaN,-0.0180042783676479,0.0385216174013156,0.00621309138800658,0.0416970972672579,-0.0413486071664291,0.00920336936421617,-0.0276212527634985,0.0392676842431186,-0.0274759963793942,-0.00867443577244464,5.30937128103703e-05,-0.011723818070462,-0.0230728496257316
70,NaN,NaN,NaN,NaN,0.0506417600025443,NaN,NaN,0.00224771607077824,0.00209542351751667,-0.0128762271246939,0.0318323104712854,0.0299177812403865,-0.0319929189525369,-0.0365359375864099,-0.0299752451668221,-0.0168255728990523,0.0321497457589608,0.018809324310238,0.0296267926322995,NaN,-0.0423880668599181,-0.0158905475368933,0.0369231710710679,-0.0344868708907857,0.0243055253542831,NaN,NaN,NaN
80,-0.0438630452636775,-0.0329853456306212,-0.0533277508982603,-0.0429026000343001,0.0401289544240387,-0.101649415827805,-0.048353971952906,-0.00326795684199802,-0.0181336191600108,-0.0139148102710374,0.0349273984418874,0.0026387950929843,-0.0441215264947701,-0.0525429782389342,-0.0406786371389536,-0.0265134223926637,0.00282223136632387,0.0153984289252306,0.0256749424375255,-0.0372819292956004,-0.0375549111208995,-0.0340300646069831,0.0152397738919033,-0.0119552265168621,-0.0175181703649826,-0.0411721707481512,-0.0568195390626909,-0.041243671951016
90,NaN,NaN,NaN,NaN,0.0283221148168002,NaN,NaN,-0.00737797621253873,-0.0304019608393317,-0.0184337864689209,0.00291076262801485,0.0197437486114973,-0.0289266318167141,-0.0476113737333788,-0.0268056506888564,-0.0495165239098214,0.0165960427679639,-0.0014002214543542,0.037880235332884,NaN,-0.0624690106361699,-0.0287570074219667,0.0249868529283432,-0.0315392932826617,-0.0233117713333788,NaN,NaN,NaN
100,-0.0592733827079842,-0.0488396291598968,-0.0548625849499521,-0.0280150728738492,0.0222565337912715,-0.130255531919733,-0.0532710257758469,0.00192563508323181,-0.0288051173381499,0.00383702251871937,-0.0122067955476078,-0.023927094907386,-0.0127331245421474,-0.0813798391058516,-0.0383939796148352,-0.0509452957569131,-0.0186626904949055,0.000578521116000319,0.0242202498391325,-0.0234701759246644,-0.0861744768588788,-0.0178202034671024,0.04039429776707,-0.0485689764455844,-0.024141736259104,-0.0703869862220867,-0.0934455606514494,-0.0691054742954311
110,NaN,NaN,NaN,NaN,-0.0112581210941837,NaN,NaN,0.007560042567911,-0.0172327916586266,-0.0189410568240978,-0.0216096419979255,0.00079453989894674,-0.012811638122176,-0.0856409852219505,-0.0817279660657202,-0.0712989709164223,-0.0114290477875476,0.0323996869164364,-0.00870286094416145,NaN,-0.0644328519050518,-0.0365795645900495,0.0268004289722898,-0.0843110628486619,-0.0183708002954691,NaN,NaN,NaN
120,-0.0788010624481269,-0.0497483706297942,-0.072296105904888,-0.0183502640480612,0.0121590863386911,-0.120865708455576,-0.0501834510664917,0.00611936220174307,-0.0426809963938271,-0.0448673178503274,-0.00774654800846983,0.00652912420024938,-0.0267591310796369,-0.0745977433994239,-0.0803393901662985,-0.0839171175172901,-0.00797595291853759,0.00503663989778502,-0.022872370771464,-0.0388644725562092,-0.0512180271401707,-0.032979460242645,0.03932253105022,-0.0652629420517977,-0.0362281944057428,-0.0475174955341007,-0.0736111770651121,-0.102794436841811
120,-0.0788010624481269,-0.0497483706297942,-0.072296105904888,-0.0183502640480612,0.0150531945709422,-0.120865708455576,-0.0501834510664917,0.00611936220174307,-0.0426809963938271,-0.0448673178503274,-0.00774654800846983,0.00652912420024938,-0.0267591310796369,-0.0745977433994239,-0.0803393901662985,-0.0839171175172901,-0.00797595291853759,0.00503663989778502,-0.022872370771464,-0.0388644725562092,-0.0512180271401707,-0.032979460242645,0.03932253105022,-0.0652629420517977,-0.0362281944057428,-0.0475174955341007,-0.0736111770651121,-0.102794436841811
130,NaN,NaN,NaN,NaN,0.0269384225371889,NaN,NaN,-0.0197411239789018,-0.052415039922004,-0.0579614295511774,-0.0231869259756616,-0.0204086847539375,-0.0570497579093937,-0.0877945363373129,-0.0772067358894628,-0.0850012811151973,0.00564496361673089,-0.0219769152518713,-0.0176735696517698,NaN,-0.0462521371191259,-0.0922603436897735,0.00610815617259353,-0.0771555580582702,-0.0290066981374005,NaN,NaN,NaN
140,-0.11548249433858,-0.0632837987741767,-0.0984710558783853,-0.0756481474101289,-0.0222781970278662,-0.119996549350347,-0.122112534159475,-0.0137220199874457,-0.0507364020500491,-0.0611013466472183,-0.0290195959025407,-0.0111694771335742,-0.0906309051568828,-0.0746381897891357,-0.0795993339334928,-0.0930284494312336,0.00989095798931544,-0.0118519191747193,-0.0235160068182696,-0.0678372357969784,-0.0578301979214009,-0.115328560137736,-0.0109683596521005,-0.111239092041126,-0.0283621855434495,-0.0868985048010246,-0.0722113312738202,-0.0890762235733975
150,NaN,NaN,NaN,NaN,-0.0416447548805721,NaN,NaN,-0.000567303816958962,-0.0303127659062306,-0.0465336339738376,-0.023098770377033,-0.0381610184277775,-0.092061680540307,-0.0969212704368123,-0.0638157251483451,-0.097413564357904,0.000287006579626103,-0.0238825287460906,-0.0562145963113062,NaN,-0.0822725898513956,-0.111285173376773,-0.0106807269673706,-0.121662740252836,-0.024845728837925,NaN,NaN,NaN
160,-0.134881108772606,-0.0738657138340502,-0.109235680929678,-0.0853540287307326,-0.0147166004670872,-0.138734247236699,-0.0999342635061911,-0.0150094824170085,-0.044870298110622,-0.0557437652731759,-0.0412758537533563,-0.0345887632353939,-0.0941392224960564,-0.0854264816133555,-0.0857384196982188,-0.0926809610985711,-0.0148967935159889,-0.0496699196602761,-0.0559659073640385,-0.103528232023578,-0.0583230678591883,-0.10705395508464,-0.0207898199748834,-0.0999480378184769,-0.0566721539212338,-0.0992134913105858,-0.0699949192060267,-0.0629894291985287
170,NaN,NaN,NaN,NaN,-0.070386234895962,NaN,NaN,-0.0171298912848012,-0.0448074246360887,-0.0659267386829487,-0.0737482940828654,-0.0635601866112407,-0.112631487181681,-0.0995000721387412,-0.0754173275025265,-0.0888410584963738,-0.0276479248409243,-0.0663142977422607,-0.0778492825133876,NaN,-0.0812264934438055,-0.0988895445298297,-0.034100939704744,-0.118422771561193,-0.0700535226437514,NaN,NaN,NaN
180,-0.147968959422417,-0.0987443006678277,-0.099280860219765,-0.118346261517497,-0.102345644703338,-0.183114830979258,-0.126926030198232,-0.0359529222879738,-0.0687659625417924,-0.0536127539415538,-0.0794890517804925,-0.0757091425693506,-0.120755827009842,-0.145808183054155,-0.0910544276933626,-0.0695707956086472,-0.0550308820018794,-0.0691199999338417,-0.084672951598714,-0.0825081305914814,-0.0793442962804716,-0.103035612527832,-0.0145963882871392,-0.121512475027901,-0.0827108634241233,-0.146412925451907,-0.118718418391253,-0.0624352009605595
190,NaN,NaN,NaN,NaN,-0.089446877794904,NaN,NaN,-0.0134499322402352,-0.0496553940218656,-0.0623823576897906,-0.0980190079933719,-0.072830561743676,-0.133872228052391,-0.161586282114389,-0.0851214557288392,-0.0816822979594419,-0.0415671178476891,-0.0793792329452691,-0.110621877629705,NaN,-0.0806554855890517,-0.114022504891008,-0.0257818811892711,-0.122599643930307,-0.0899478870990421,NaN,NaN,NaN
200,-0.169394902182859,-0.0927901663507927,-0.113653603763792,-0.168771138712051,-0.0576998428387692,-0.179711824518559,-0.127795940629586,-0.00689867898119367,-0.0612951011326702,-0.0554587622298822,-0.0987410323991854,-0.107731914213241,-0.102414704096298,-0.131133782071071,-0.112243953166573,-0.0764314048951035,-0.0770171888303091,-0.0935239490104574,-0.0620425078393957,-0.0968202671614515,-0.0754583123426276,-0.109698623043499,-0.0596716982529812,-0.105816520957299,-0.0781794903451827,NaN,NaN,NaN
210,NaN,NaN,NaN,NaN,-0.0790892210611441,NaN,NaN,-0.0132081204314287,-0.045133337386871,-0.0552559041762198,-0.117737436914468,-0.0870783347089657,-0.110366614578846,-0.139158821629754,-0.117880652195933,-0.113572460542327,-0.0809596474485247,-0.0909194769992687,-0.0933408758780781,NaN,-0.106839952360128,-0.102073915088247,-0.0681253693657918,-0.114225488165691,-0.110095323237328,NaN,NaN,NaN
220,-0.159745620763648,-0.113431362748323,-0.13517358751084,-0.143745592488287,-0.104550035553137,-0.195708434260053,-0.145048517209495,-0.0161062570239184,-0.0497205465189771,-0.0961693682954408,-0.114423963483627,-0.115032424945695,-0.136374895373686,-0.112401343467591,-0.125350837411543,-0.120292947506532,-0.0871276592690506,-0.0856283879872601,-0.117477227633288,-0.131832064571344,-0.118758614338923,-0.167875057087355,-0.0825563406844815,-0.14526289559707,-0.121354946983761,NaN,NaN,NaN
230,NaN,NaN,NaN,NaN,-0.0827253890625333,NaN,NaN,-0.0239567910724638,-0.0705490597892813,-0.0661506338681021,-0.124144495663661,-0.124085779527018,-0.137522170366066,-0.128063112199521,-0.111132240944095,-0.14362237500384,-0.0889799286084181,-0.0992600735303156,-0.0880927376761967,NaN,-0.114961912988894,-0.171647966443435,-0.0703742136779673,-0.10393507512009,-0.130440733809466,NaN,NaN,NaN
240,-0.20309363196886,-0.132859680860688,-0.138456757454652,-0.165847853981958,-0.108668429705547,-0.232419731363962,-0.199154892414961,-0.0512548058061836,-0.0819264163394512,-0.0902600631038449,-0.132822061961625,-0.122449015564412,-0.141140431761484,-0.153993004635353,-0.120991392794132,-0.144400999311046,-0.0939832597146758,-0.0879613808253993,-0.113360085691086,-0.127094953355263,-0.118949826837653,-0.150145012755213,-0.101491762562644,-0.113409297552252,-0.15846156685027,NaN,NaN,NaN
250,NaN,NaN,NaN,NaN,-0.0758885717700251,NaN,NaN,-0.0162763347187612,-0.0640676197537447,-0.104695291937241,-0.138984313615196,-0.143235579792755,-0.150232730080269,-0.14914319450057,-0.0999199507435163,-0.157293880831503,-0.110781659652219,-0.0954028904272509,-0.118933047220868,NaN,-0.146163986062598,-0.141675062909701,-0.112754767276639,-0.1089146142324,-0.155503721118443,NaN,NaN,NaN
260,-0.242595229078794,-0.131619951432036,-0.156423719958108,-0.175469461555577,-0.0796206590733316,-0.239145352390018,-0.173303638780178,-0.0157968058285277,-0.0860864715254749,-0.132447400667454,-0.149099792894768,-0.137416058073058,-0.14579326923058,-0.152945906459596,-0.115996451496267,-0.143293294161232,-0.108433890733628,-0.0984609129757022,-0.154830407689712,-0.153431939329649,-0.154301474097941,-0.132099411450708,-0.141175055373729,-0.114335181779894,-0.157512892396847,NaN,NaN,NaN
270,NaN,NaN,NaN,NaN,-0.1077063566029,NaN,NaN,-0.0160780434757266,-0.0860073443624445,-0.151256349314629,-0.138900791194336,-0.141576150825388,-0.125234732481076,-0.185103415921845,-0.136780386083174,-0.156896679753592,-0.103443081729448,-0.117465081194273,-0.144161952382378,NaN,-0.176244078790118,-0.157935012457894,-0.135439431737954,-0.158924133301029,-0.174969454019606,NaN,NaN,NaN
280,-0.237424101804692,-0.182777210063033,-0.170719327353336,-0.191977223503892,-0.131659885667773,-0.253285184835396,-0.23218807247552,-0.030699399582199,-0.0997091661992385,-0.148248289953469,-0.138756160915336,-0.133263603802995,-0.124910410037258,-0.177821437900467,-0.130422914858209,-0.162886001177465,-0.104101744298747,-0.127546249914152,-0.159139137793707,-0.164741526263373,-0.174798902989304,-0.13921321764118,-0.131777217764243,-0.145683763447909,-0.202105099664522,NaN,NaN,NaN
290,NaN,NaN,NaN,NaN,-0.118493646658954,NaN,NaN,-0.0307152275192255,-0.113995907946195,-0.170121897863197,-0.171363213842183,-0.15129467946909,-0.145195839740442,-0.179532708370437,-0.134847474406424,-0.140494479125794,-0.123669156668783,-0.140132840817783,-0.189880147068901,NaN,-0.213258786427376,-0.174431629735359,-0.142371792669317,-0.161176108138724,-0.180111655237908,NaN,NaN,NaN
300,-0.276837292873956,-0.176415631588586,-0.185009800686711,-0.269338644920323,-0.124228518968604,-0.269586958204529,-0.233415238479157,-0.0313179663806446,-0.111235786206177,-0.149942530364613,-0.183334092986642,-0.17642240604581,-0.175777567877205,-0.204157797769749,-0.134672290198354,-0.157892562531849,-0.112699043922392,-0.146517985888341,-0.200468836585999,-0.137163224310002,-0.229195790962978,-0.194423416144816,-0.180566583206399,-0.171195292453317,-0.238791227343255,NaN,NaN,NaN
310,NaN,NaN,NaN,NaN,-0.140827942704129,NaN,NaN,-0.0166151314603715,-0.123749874138777,-0.176346008701032,-0.201131881891025,-0.165003501160946,-0.196650659830907,-0.197102970680063,-0.160126217534204,-0.177821738430917,-0.134948064452416,-0.148469054613103,-0.17324440923735,NaN,-0.239332432595063,-0.206007487556088,-0.173907329321356,-0.213170129944664,-0.239279589324294,NaN,NaN,NaN
320,-0.2658535310363,-0.213929482736772,-0.225855119526424,-0.198824684583166,-0.191046956540522,-0.290720134218389,-0.231545438196881,-0.0697498754426739,-0.129671576211431,-0.18355711162465,-0.207282237547621,-0.176532224881033,-0.195074127179295,-0.195455813372733,-0.17887568619651,-0.199895950415933,-0.182816930170824,-0.184916260584189,-0.22100758841422,NaN,-0.223951158949679,-0.199497872790876,-0.220388495687487,-0.203450223869733,-0.232386422572435,NaN,NaN,NaN
330,NaN,NaN,NaN,NaN,-0.148574240270558,NaN,NaN,-0.085385548113873,-0.137961333008041,-0.200103692089406,-0.227077426954455,-0.205447010789182,-0.190745111269934,-0.211209995217997,-0.194811563742925,-0.173910585067896,-0.175668312536575,-0.20605444543888,-0.227032848271057,NaN,-0.257704359879719,-0.23153241521072,-0.217309561228565,-0.176856785244791,-0.253486790678851,NaN,NaN,NaN
340,-0.272999268587071,-0.257200370315286,-0.212995697062718,-0.185220422443662,-0.16541746933354,-0.291119088390592,-0.202841774929766,-0.0882440184436104,-0.136306411997422,-0.190402819609634,-0.246970789641579,-0.21653545740021,-0.193130947378842,-0.215846929617455,-0.17942690912998,-0.177915403754459,-0.189376883786389,-0.212810495172986,-0.241332838402012,NaN,-0.31425404764263,-0.225579407882872,-0.202653567735535,-0.22762138706872,-0.273718124901059,NaN,NaN,NaN
350,NaN,NaN,NaN,NaN,-0.194908898042377,NaN,NaN,-0.0979628851840688,-0.144133351901232,-0.193775898246366,-0.278360944688493,-0.204342686606929,-0.198995924329082,-0.201002728930193,-0.21082294956487,-0.22616080908235,-0.202864189492486,-0.240010003538499,-0.277760635114877,NaN,-0.290844603913044,-0.250066503717285,-0.218477998573457,-0.221659363827376,-0.276581428762198,NaN,NaN,NaN
360,-0.306022430965967,-0.288243037029537,-0.235039755825932,-0.173073607765007,-0.24189169981775,-0.275450056839457,-0.183284255020372,-0.0980298659080837,-0.16945191531362,-0.205661000991592,-0.278455862222243,-0.208599449987301,-0.22898084908081,-0.222145171299591,-0.221601098486407,-0.234377436802826,-0.249278487833521,-0.244092960142029,-0.301408624889048,NaN,-0.311853560674291,-0.250114713810285,-0.210462100149291,-0.23583225462224,-0.293125254364497,NaN,NaN,NaN
360,-0.306022430965967,-0.288243037029537,-0.235039755825932,-0.173073607765007,-0.216085650971468,-0.275450056839457,-0.183284255020372,-0.0980298659080837,-0.16945191531362,-0.205661000991592,-0.278455862222243,-0.208599449987301,-0.22898084908081,-0.222145171299591,-0.221601098486407,-0.234377436802826,-0.249278487833521,-0.244092960142029,-0.301408624889048,NaN,-0.311853560674291,-0.250114713810285,-0.210462100149291,-0.23583225462224,-0.293125254364497,NaN,NaN,NaN
370,NaN,NaN,NaN,NaN,-0.202640669970395,NaN,NaN,-0.12203313276241,-0.143583631620011,-0.206492844232629,-0.269552146760752,-0.220779823899524,-0.22358983369422,-0.244038564130603,-0.255929314343866,-0.256008867258367,-0.250307804624327,-0.26935905594671,-0.334432538594069,NaN,-0.330436360157939,-0.24662868581281,-0.215399564998619,-0.264223741884551,-0.323886299003016,NaN,NaN,NaN
380,-0.375927441479075,-0.320190801281981,-0.27649297263312,-0.16742764238011,-0.230859101781989,-0.274171299775259,-0.205923088588082,-0.11862318905716,-0.154858156667917,-0.241722651439698,-0.270806986609981,-0.244688022954875,-0.255947947231758,-0.261617591911684,-0.252735426987869,-0.255815400781263,-0.249831589082303,-0.266007640546573,-0.332954680106832,NaN,-0.330883023539059,-0.254840680355517,-0.234631635475007,-0.251762747664761,-0.328229965771808,NaN,NaN,NaN
390,NaN,NaN,NaN,NaN,-0.267060123226223,NaN,NaN,-0.134084791987374,-0.163640532960273,-0.235544621937509,-0.285005172051042,-0.26797512574716,-0.23249492658694,-0.267594766896542,-0.254603098512792,-0.243809710193026,-0.272655374097705,-0.291784137231951,-0.359406243315231,NaN,-0.357369398191234,-0.25688341086749,-0.222289476003937,-0.294243352859035,-0.338256412905607,NaN,NaN,NaN
400,-0.419742401870773,-0.324256352163622,-0.277203576881838,-0.148928365317321,-0.269113372303941,-0.262338288974677,-0.156873639085768,-0.13229629771389,-0.181841658772586,-0.26130872174183,-0.284756483103775,-0.259677980910323,-0.276047924603168,-0.292929859483673,-0.270327978639194,-0.265113437237188,-0.286785063640399,-0.288545671192556,-0.351293048157919,NaN,-0.355881021138252,-0.296413934033224,-0.244349788455648,-0.288676276717229,-0.319309971577615,NaN,NaN,NaN
410,NaN,NaN,NaN,NaN,-0.288165875836533,NaN,NaN,-0.120653660431199,-0.188130133215102,-0.248075489486894,-0.310069286349207,-0.294044013516057,-0.260175659335308,-0.274840556042916,-0.29009298978002,-0.261148814498295,-0.299851251053616,-0.307437015271405,-0.387324269897976,NaN,-0.37998494064908,-0.278876354410021,-0.253076190951716,-0.313209203445247,-0.309801062922697,NaN,NaN,NaN
420,-0.456870058868773,-0.334257379430203,-0.319421806471273,-0.177428168762607,-0.275322206177241,-0.264661639794216,-0.145512836754545,-0.112669643278923,-0.169121331818762,-0.277744982487279,-0.32737382965274,-0.293064910354584,-0.314279404899338,-0.302317679411497,-0.298506214503119,-0.296633822145712,-0.314154872594173,-0.316090539133379,-0.379662120857511,NaN,-0.404781081962776,NaN,-0.252590959496196,-0.310134902164095,-0.321588493271715,NaN,NaN,NaN
430,NaN,NaN,NaN,NaN,-0.306651754250098,NaN,NaN,-0.141302268660949,-0.201404062301791,-0.279576715579239,-0.320668995316133,-0.303967528970775,-0.300869986668166,-0.333126308037912,-0.299649983306917,-0.267434659299374,-0.307081262351371,-0.298224129109609,-0.396754539751844,NaN,-0.387558307985812,NaN,-0.277381215421916,-0.284069520583779,-0.339454402411402,NaN,NaN,NaN
440,-0.462316547167569,-0.363957927243741,-0.352189182375444,NaN,-0.337342299453917,-0.24978287810522,-0.153299205047623,-0.126276597670375,-0.209512749502355,-0.320045394632652,-0.331774346764966,-0.289698343210932,-0.314193503279083,-0.333529644945842,-0.304078049043715,-0.27973912724319,-0.306526658450339,-0.334620119683196,-0.417117230824849,NaN,-0.382902715654258,NaN,-0.285977763719435,-0.311561545253833,-0.341780633314419,NaN,NaN,NaN
450,NaN,NaN,NaN,NaN,-0.355965545327277,NaN,NaN,-0.137781303998677,-0.200502345731159,-0.327319358508701,-0.351547747714184,-0.320896659654012,-0.337925892021259,-0.35754027479619,-0.304061144205909,-0.289814661017134,-0.315727398173119,-0.349752579160292,-0.425880197858985,NaN,-0.392749345402218,NaN,-0.318852413967687,-0.310495789145981,-0.341830346059669,NaN,NaN,NaN
460,-0.469621941519833,-0.383268260858117,-0.377144689977866,NaN,-0.361406523901159,-0.212140562711816,NaN,-0.153576057454674,-0.206085450163625,-0.307635615810361,-0.341545468237396,-0.304263801905939,-0.359306880435242,-0.35299625439415,-0.333620067044947,-0.290472947923371,-0.324797031487143,-0.351291295063628,-0.435317855753079,NaN,-0.416296532254662,NaN,-0.328118769505356,-0.317535840155214,-0.353026858411629,NaN,NaN,NaN
470,NaN,NaN,NaN,NaN,-0.374112074774531,NaN,NaN,-0.169887347621386,-0.229284773020344,-0.340016895236743,-0.371733626705849,-0.328452370826814,-0.36554752044782,-0.346617245153611,-0.315416436812218,-0.303683389952525,-0.307482345280927,-0.333878185135079,-0.450320836694689,NaN,-0.441993889254907,NaN,-0.331709482276202,-0.348741043754436,-0.350340241410809,NaN,NaN,NaN
480,-0.50470837065811,-0.401822259506986,-0.395761336703431,NaN,-0.353387620172494,NaN,NaN,-0.192034187798455,-0.248605875642507,-0.343436931756267,-0.377959866301037,-0.35184728891799,-0.38258484209301,-0.384978579648329,-0.337314337599977,-0.323654514893553,-0.327438819362524,-0.350376430285814,-0.458875561171268,NaN,-0.432214628416127,NaN,-0.319575189699626,-0.334643536014082,-0.344497303360226,NaN,NaN,NaN
490,NaN,NaN,NaN,NaN,-0.365910223134507,NaN,NaN,-0.198858608209906,-0.255587448435036,-0.361029859070655,-0.411845801513103,-0.365343610537583,-0.392549430042544,-0.380986157842823,-0.342503872364134,-0.350355643596365,-0.311726336117179,-0.333970347806373,-0.502456233033089,NaN,-0.422527279806598,NaN,-0.353625915775037,-0.333955822167962,-0.346360466928401,NaN,NaN,NaN
500,-0.507873331958307,-0.414370157115197,-0.395426120030805,NaN,-0.366255582709817,NaN,NaN,-0.21877275758648,-0.262077653942027,-0.370526245623495,-0.401761502267704,-0.384044117780764,-0.427898698103437,-0.389298329202153,-0.371722068805631,-0.364583130756288,-0.315770223762226,-0.352945214306081,-0.480615182588763,NaN,-0.431889805088225,NaN,-0.339462666998773,-0.366591175045505,-0.366531945502677,NaN,NaN,NaN
510,NaN,NaN,NaN,NaN,-0.390034804113764,NaN,NaN,-0.238161479559863,-0.279147407831599,-0.388389525121745,-0.429231863701163,-0.369088846048071,-0.435401190342408,-0.410341471302073,-0.380889374515863,-0.374687715807053,-0.367458581056443,-0.361590348359663,-0.511969524423733,NaN,-0.408363530146251,NaN,-0.368250979675935,-0.373984724996398,-0.392823726688561,NaN,NaN,NaN
520,-0.535478556431146,-0.445817162505545,-0.413033360107868,NaN,-0.3947228286897,NaN,NaN,-0.235567400893399,-0.27128528082095,-0.388702452452673,-0.452397251661251,-0.398535696073511,-0.422792059655036,-0.409669910967633,-0.37812512048216,-0.39556807057996,-0.356909461381912,-0.357258327145803,-0.49836864325179,NaN,NaN,NaN,-0.371971797087371,-0.398340463980014,-0.391368908869147,NaN,NaN,NaN
530,NaN,NaN,NaN,NaN,-0.423362754457237,NaN,NaN,-0.256818910771896,-0.29110877017848,-0.378394007580079,-0.475534464891663,-0.416564642982252,-0.401150987180895,-0.409338826588693,-0.398151593114372,-0.390442022873339,-0.393643173048541,-0.358388071195274,-0.510499680081826,NaN,NaN,NaN,-0.385398871482473,-0.399876425020893,-0.390638619875962,NaN,NaN,NaN
540,-0.544581748978738,-0.481806560424661,-0.417850111893164,NaN,-0.461805357394441,NaN,NaN,-0.264435729802839,-0.292451640405317,-0.393735836603917,-0.474173312395792,-0.419152210155636,-0.405134518293926,-0.402629359074317,-0.405921307011687,-0.42927143354373,-0.364559839646423,-0.379479172946152,-0.519691904775193,NaN,NaN,NaN,-0.378477655221959,-0.403853444640843,-0.420571202241005,NaN,NaN,NaN
550,NaN,NaN,NaN,NaN,-0.446322905164268,NaN,NaN,-0.261947212456892,-0.282852697836459,-0.422274208123603,-0.47525922908799,-0.453821903736759,-0.407819757863517,-0.426060841703561,-0.392605679325078,-0.450445807273426,-0.377560786907814,-0.39879939902117,-0.538905567761527,NaN,NaN,NaN,-0.387439848900155,-0.372661389248802,-0.401113984369255,NaN,NaN,NaN
560,-0.555295659516615,-0.48047596185786,-0.44802966767749,NaN,-0.44388735631011,NaN,NaN,-0.2624498496343,-0.302029671063705,-0.431959803638841,-0.493590709982934,-0.462782093878622,-0.407373219703418,-0.428968974690139,-0.412734958415351,-0.447170901916985,-0.399396202406204,-0.411514967576204,-0.544697791298695,NaN,NaN,NaN,-0.391682086642116,-0.331543689644691,-0.404422824622327,NaN,NaN,NaN
570,NaN,NaN,NaN,NaN,-0.465956309012254,NaN,NaN,-0.290311025873611,-0.313127884914353,-0.429875499747969,-0.5111865173808,-0.474870430340573,-0.353705243291701,-0.443120577911471,-0.415105392338703,-0.468395614497035,-0.395193784948851,-0.414844093634643,-0.542423902782363,NaN,NaN,NaN,-0.413655871368468,-0.328301216532631,-0.407709125091659,NaN,NaN,NaN
580,-0.613576778333842,-0.53742861086564,-0.468665478318917,NaN,-0.464858871986145,NaN,NaN,-0.290995108310128,-0.301905326590071,-0.449535074789299,-0.519224454704624,-0.509757382392748,-0.383722224624749,-0.442834823542052,-0.431268921700895,-0.432970963381633,-0.389656010525907,-0.420068314621555,-0.531483843080959,NaN,NaN,NaN,-0.428107754597628,-0.324557233232351,-0.404301986337275,NaN,NaN,NaN
590,NaN,NaN,NaN,NaN,-0.471468162683897,NaN,NaN,-0.312606879065407,-0.316674144222823,-0.461454237652176,-0.543482396071011,-0.514853502275404,-0.42043389739172,-0.458575356296052,-0.441106285093317,-0.449826589325673,-0.417011043399228,-0.428083086056534,-0.575854033478793,NaN,NaN,NaN,-0.428295085244714,-0.344847671776366,-0.392403610163846,NaN,NaN,NaN
600,-0.615923169821205,-0.524440811811431,-0.474800544488876,NaN,-0.491711267682058,NaN,NaN,-0.350585538120624,-0.314170976017445,-0.452391366273274,-0.564460548461146,-0.504645108998413,-0.400101384584723,-0.444314059460518,-0.42675295080751,-0.440748691424277,-0.42586667398874,-0.439244160859614,-0.580579624360962,NaN,NaN,NaN,-0.392897106206738,-0.340550211564242,-0.424156029623874,NaN,NaN,NaN
600,-0.615923169821205,-0.524440811811431,-0.474800544488876,NaN,-0.468697271936093,NaN,NaN,-0.350585538120624,-0.314170976017445,-0.452391366273274,-0.564460548461146,-0.504645108998413,-0.400101384584723,-0.444314059460518,-0.42675295080751,-0.440748691424277,-0.42586667398874,-0.439244160859614,-0.580579624360962,NaN,NaN,NaN,-0.392897106206738,-0.340550211564242,-0.424156029623874,NaN,NaN,NaN
610,NaN,NaN,NaN,NaN,-0.516750462997087,NaN,NaN,-0.368323972261157,-0.324719219144831,-0.467400483044902,-0.556167410696975,-0.531248189641954,-0.41073502844828,-0.458765066142532,-0.457952269018756,-0.430371249769234,-0.460481395541742,-0.447652752404944,-0.592051497737616,NaN,NaN,NaN,-0.40500172140139,-0.347914710238314,-0.402782429250118,NaN,NaN,NaN
620,-0.657726204072042,-0.517052020259328,-0.51813753624426,NaN,-0.525161934625895,NaN,NaN,-0.318327350957668,-0.314335265996708,-0.469058033696958,-0.579818530996665,-0.543115260560188,-0.414789810322135,-0.480296570223492,-0.45958540157176,-0.429427584156641,-0.467910132599474,-0.445602508631725,-0.580772715175004,NaN,NaN,NaN,-0.405566342984083,-0.378264904707655,-0.387134935714557,NaN,NaN,NaN
630,NaN,NaN,NaN,NaN,-0.511605757358369,NaN,NaN,-0.31948451841069,-0.305002042433943,-0.465988115151532,-0.587852586468844,-0.535818381237336,-0.40283733866773,-0.484278723905294,-0.461336993210421,-0.447483954468934,-0.469121896417555,-0.442950703074682,-0.606452791674381,NaN,NaN,NaN,-0.415195088155887,-0.361871594772333,-0.396149346558418,NaN,NaN,NaN
640,-0.701504599925673,-0.544062820546527,NaN,NaN,-0.518201023301794,NaN,NaN,-0.319148550411939,-0.30919694663005,-0.509950210242647,-0.595706323671101,-0.550110232001941,-0.394116445896576,-0.455506940402876,-0.46570908515093,-0.424073008087098,-0.469974025463958,-0.431285989326027,-0.603625175804164,NaN,NaN,NaN,-0.398268086230003,-0.376714793691428,-0.422699208268128,NaN,NaN,NaN
650,NaN,NaN,NaN,NaN,-0.568731587037887,NaN,NaN,-0.310916645726928,-0.303554988317817,-0.492690621285573,-0.597784366510934,-0.563005617942814,-0.388854157719347,-0.48898440464516,-0.465434225010319,-0.433695492207862,-0.44072990827116,-0.450683601991886,-0.591181962969324,NaN,NaN,NaN,-0.390701480828393,-0.358474348478591,-0.428776810511652,NaN,NaN,NaN
660,-0.690224940815915,-0.569967418336162,NaN,NaN,-0.54368162271507,NaN,NaN,-0.31222169920549,-0.339777672998646,-0.502067171321527,-0.595131433964704,-0.559377964970837,-0.393897809994295,-0.488361930950866,-0.480073438886565,-0.433013413307677,-0.479911941336066,-0.443562282540167,-0.613989469252025,NaN,NaN,NaN,-0.393434680048943,-0.340959809523211,-0.409666955751543,NaN,NaN,NaN
670,NaN,NaN,NaN,NaN,-0.561686527187822,NaN,NaN,-0.336215799881095,-0.335041813992773,-0.508555248071165,-0.607237426590584,-0.575945958230147,-0.420047089658533,-0.496076046714954,-0.48379237798269,-0.436482536467347,-0.452618517204968,-0.467367174253375,-0.624026184509527,NaN,NaN,NaN,-0.393376702716322,-0.346837183354508,-0.408001516175178,NaN,NaN,NaN
680,-0.706185612124445,-0.615138898045962,NaN,NaN,-0.560065666294855,NaN,NaN,-0.349619833608374,-0.322229199146635,-0.521636086343812,-0.606406835559755,-0.564693972965981,-0.393972817385742,-0.49815947405868,-0.463005938975367,-0.435906895434825,-0.450198746199429,-0.462755534500115,-0.640599186609668,NaN,NaN,NaN,-0.398394935124053,-0.347350714760724,-0.418095332218156,NaN,NaN,NaN
690,NaN,NaN,NaN,NaN,-0.56223086296515,NaN,NaN,-0.345709055908415,-0.332100372214667,-0.499379302110499,-0.608845890602494,-0.578719979503471,-0.414778540430265,-0.502967961256605,-0.484967326820662,-0.433873932162473,-0.462997211070219,NaN,-0.642318220782926,NaN,NaN,NaN,NaN,-0.372862995092257,-0.404757164747807,NaN,NaN,NaN
700,-0.750955633241627,-0.600796207546922,NaN,NaN,-0.561052157496554,NaN,NaN,-0.35684671438061,-0.320510916299501,-0.534833129723743,-0.61375893735277,-0.573552734081013,-0.417060693533967,-0.496090697574385,-0.471620143436817,-0.44038267038054,-0.459883715609562,-0.47801321499799,-0.638129953300921,NaN,NaN,NaN,NaN,-0.383457444776311,-0.423416975159235,NaN,NaN,NaN
710,NaN,NaN,NaN,NaN,-0.554727118515971,NaN,NaN,-0.357203594289831,-0.331626535872038,-0.534021447067051,-0.625502790786557,-0.594538524953416,-0.418327178938129,-0.49525597424987,-0.469784152830151,-0.438683671570606,-0.476889982441599,-0.483868049045547,-0.633814461261804,NaN,NaN,NaN,NaN,-0.383829977313129,-0.419931197603802,NaN,NaN,NaN
720,-0.780134259840557,NaN,NaN,NaN,-0.548549589897866,NaN,NaN,-0.37376682915035,-0.327352992874882,-0.533616482285851,-0.610021715987612,-0.61345804376194,-0.446331858467254,-0.499100885692899,-0.494471977960873,-0.450062505728821,-0.474366403209834,-0.487438601232048,-0.640990627520624,NaN,NaN,NaN,NaN,NaN,-0.447344583472806,NaN,NaN,NaN
730,NaN,NaN,NaN,NaN,-0.565816191232103,NaN,NaN,-0.366635492016969,-0.3229563576143,-0.533642277816132,-0.60236006783123,-0.60590120559995,-0.439184868706275,-0.522123772131339,-0.505567562170085,-0.472556959459573,-0.473440518982192,-0.497838081786748,-0.640856390586348,NaN,NaN,NaN,NaN,NaN,-0.424828842168522,NaN,NaN,NaN
740,-0.784352956030612,NaN,NaN,NaN,-0.546550185859083,NaN,NaN,-0.351326095237513,-0.319754706555015,-0.527692275792782,-0.601327745735926,-0.580420606186674,-0.435394553628306,-0.49137374694265,-0.500591404025337,-0.463080483049037,-0.481486220009303,-0.494977783230107,-0.641192108143058,NaN,NaN,NaN,NaN,NaN,-0.422269950608897,NaN,NaN,NaN
750,NaN,NaN,NaN,NaN,-0.5592276872238,NaN,NaN,-0.357300765801955,-0.317039163498395,-0.536251132563047,-0.623210620001192,-0.593609009316171,-0.434376757171412,-0.513532984000775,-0.496961497074986,-0.487869236322508,-0.474186084939912,-0.504266803772536,-0.651663590784706,NaN,NaN,NaN,NaN,NaN,-0.438052933288941,NaN,NaN,NaN
760,NaN,NaN,NaN,NaN,-0.493272648590155,NaN,NaN,-0.364751917422407,-0.323967266915051,-0.528879120627729,-0.613244404178388,-0.562767572782312,-0.439666343531171,-0.509632724866562,-0.488491046345391,-0.46563098480027,-0.493650064746784,-0.492743589777363,-0.655837833512384,NaN,NaN,NaN,NaN,NaN,-0.433064753926197,NaN,NaN,NaN
770,NaN,NaN,NaN,NaN,-0.515667175946325,NaN,NaN,-0.369719560537743,-0.3182353999099,-0.544230216007105,-0.599078275318646,-0.582176580561062,-0.431518462151104,-0.499772320806317,-0.527739947435393,-0.498673180774325,-0.46461544232175,-0.490838602388247,-0.641606589721837,NaN,NaN,NaN,NaN,NaN,-0.421164123774395,NaN,NaN,NaN
780,NaN,NaN,NaN,NaN,-0.529909439186701,NaN,NaN,-0.389678038155672,-0.328829098267829,-0.528807368982822,-0.605039797675907,-0.579567224930063,-0.410904452489395,-0.504004540866616,-0.499978572349643,-0.465279238952901,-0.469790326226475,-0.477026849017311,-0.650542737427711,NaN,NaN,NaN,NaN,NaN,-0.426016313108572,NaN,NaN,NaN
790,NaN,NaN,NaN,NaN,-0.520089731958209,NaN,NaN,-0.371588859935936,-0.334993729120793,-0.524656041701947,-0.627584590257013,-0.593158589304428,-0.44090816039424,-0.499920457273899,-0.49996692679471,-0.460325996254955,-0.448899828550885,-0.485999811703293,-0.664879918201837,NaN,NaN,NaN,NaN,NaN,-0.448824069833314,NaN,NaN,NaN
800,NaN,NaN,NaN,NaN,-0.561437337356471,NaN,NaN,-0.396818766865612,-0.353164676667099,-0.526213916421462,-0.615697233533413,-0.589930391388737,-0.426837575173353,-0.48980560409943,-0.51727096921416,-0.450585553932616,-0.485671983070893,-0.505142975254929,-0.62630182612015,NaN,NaN,NaN,NaN,NaN,-0.427826758626999,NaN,NaN,NaN
810,NaN,NaN,NaN,NaN,-0.536462630867144,NaN,NaN,-0.358563619796515,-0.354417888643058,-0.521700575169514,-0.62125003447885,-0.601845171515888,NaN,-0.486738816079524,-0.502257094043743,-0.449093545470031,-0.485114499086384,-0.508425268651596,-0.640698987763229,NaN,NaN,NaN,NaN,NaN,-0.43575337446335,NaN,NaN,NaN
820,NaN,NaN,NaN,NaN,-0.524314438757261,NaN,NaN,-0.389144596607152,-0.342197318783164,-0.519462875528187,-0.616863041236868,-0.58801538631796,-0.442288722148332,-0.49320560525563,-0.520895491660617,-0.459608229363848,-0.477462868611665,-0.516342993795471,-0.656046702175044,NaN,NaN,NaN,NaN,NaN,-0.413786602114162,NaN,NaN,NaN
830,NaN,NaN,NaN,NaN,-0.556457046918037,NaN,NaN,-0.413734248457584,-0.336488242003794,-0.535595099635185,-0.617705152601609,-0.57215914934076,-0.408307869402515,-0.48403216371538,-0.502883073926619,-0.452110370302646,-0.482054222559558,-0.50495677159703,-0.649713649049131,NaN,NaN,NaN,NaN,NaN,-0.480959164732843,NaN,NaN,NaN
840,NaN,NaN,NaN,NaN,-0.524241309681126,NaN,NaN,-0.402676230554605,-0.361161917159169,-0.531280484143213,-0.616841127558232,-0.580277854222986,-0.435155381478618,-0.492491720216167,-0.484704738340088,-0.47498925256719,-0.4875112294241,-0.50372109056398,-0.643820747811257,NaN,NaN,NaN,NaN,NaN,-0.443424163754248,NaN,NaN,NaN
840,NaN,NaN,NaN,NaN,-0.520745890107092,NaN,NaN,-0.402676230554605,-0.361161917159169,-0.531280484143213,-0.616841127558232,-0.580277854222986,-0.435155381478618,-0.492491720216167,-0.484704738340088,-0.47498925256719,-0.4875112294241,-0.50372109056398,-0.643820747811257,NaN,NaN,NaN,NaN,NaN,-0.443424163754248,NaN,NaN,NaN
850,NaN,NaN,NaN,NaN,-0.523555098487255,NaN,NaN,-0.386605615189831,-0.375347204835089,-0.52550979862162,-0.617658319939838,-0.571733523091131,-0.421827356910952,-0.494620602790436,-0.495086562730858,-0.467042225704453,-0.481924994466114,-0.500719793137942,-0.65432679145464,NaN,NaN,NaN,NaN,NaN,-0.438973182570648,NaN,NaN,NaN
860,NaN,NaN,NaN,NaN,-0.54152030789642,NaN,NaN,-0.409712650154236,-0.385908345727616,-0.525086676792407,-0.635365323604155,-0.55719310860028,NaN,-0.506468014008407,-0.480507079281524,-0.452520093482635,-0.49115728988613,NaN,-0.626526222189386,NaN,NaN,NaN,NaN,NaN,-0.443102470951866,NaN,NaN,NaN
870,NaN,NaN,NaN,NaN,-0.519262647115961,NaN,NaN,-0.401814584710623,-0.350682796035253,-0.550247586939633,-0.623754705336478,-0.555215743461154,-0.441904043172497,-0.491491454702182,-0.499380015870318,-0.457772864862286,-0.478757403524481,NaN,-0.659486774057893,NaN,NaN,NaN,NaN,NaN,-0.458755975096424,NaN,NaN,NaN
880,NaN,NaN,NaN,NaN,-0.559841270225619,NaN,NaN,-0.418068398428797,-0.356325004789527,-0.531301771716746,-0.627424808234498,-0.527819763314038,-0.443275714234114,-0.497315484378627,-0.49038363685345,-0.484880460998547,-0.513150483870703,NaN,-0.645853711083609,NaN,NaN,NaN,NaN,NaN,-0.467842513248253,NaN,NaN,NaN
890,NaN,NaN,NaN,NaN,-0.557684338142695,NaN,NaN,-0.404991066344731,-0.362352142961676,-0.532993883370536,-0.632083155428509,-0.551095596214453,-0.458560192030436,-0.517263443430812,-0.497084589338412,-0.466744825780102,-0.51282227957524,NaN,-0.650278395852846,NaN,NaN,NaN,NaN,NaN,-0.467709528524186,NaN,NaN,NaN
900,NaN,NaN,NaN,NaN,-0.549118719437308,NaN,NaN,-0.398504241805301,-0.369432640360621,-0.524926769548872,-0.615529813028631,-0.534965125201746,-0.469636742644489,-0.510088404161179,-0.525439762504698,-0.461725466383184,-0.523461307942691,NaN,-0.666471477375941,NaN,NaN,NaN,NaN,NaN,-0.472144731859168,NaN,NaN,NaN
910,NaN,NaN,NaN,NaN,-0.568904517267583,NaN,NaN,-0.41049427976594,-0.358173267056229,-0.525194742533339,-0.633314954609915,-0.529970935230005,-0.482682143368256,-0.515606268441818,-0.506813135663777,-0.461347549342473,-0.531116194163951,NaN,-0.639937393514849,NaN,NaN,NaN,NaN,NaN,-0.479002085399084,NaN,NaN,NaN
920,NaN,NaN,NaN,NaN,-0.54963650835823,NaN,NaN,-0.37433232728019,-0.373973279795099,-0.542256357056561,-0.633166692921312,-0.530353360227466,-0.502681192596918,-0.503912879079406,-0.490301241421777,-0.474898592548146,NaN,NaN,-0.669828527722014,NaN,NaN,NaN,NaN,NaN,-0.46076063841808,NaN,NaN,NaN
930,NaN,NaN,NaN,NaN,-0.552985669779993,NaN,NaN,-0.378591344638935,-0.379810082015664,-0.554885022223174,-0.648207114948135,-0.530583391242637,-0.466635570439472,-0.522236721492082,-0.485149773847937,-0.481336330447431,NaN,NaN,-0.653025745048743,NaN,NaN,NaN,NaN,NaN,-0.471378504433019,NaN,NaN,NaN
940,NaN,NaN,NaN,NaN,-0.588993725631206,NaN,NaN,-0.382621583192717,-0.361885945101315,-0.538153490310727,-0.631131600891607,-0.544324144294791,-0.46860366922306,-0.521953847206142,-0.494412497976003,NaN,NaN,NaN,-0.647806532902662,NaN,NaN,NaN,NaN,NaN,-0.482445287807452,NaN,NaN,NaN
950,NaN,NaN,NaN,NaN,-0.535409647303411,NaN,NaN,-0.377990408960215,-0.371830748129565,NaN,-0.651299698498321,-0.543329889389804,-0.487877313078348,-0.519317944718738,-0.49482334814518,NaN,NaN,NaN,-0.658172203781752,NaN,NaN,NaN,NaN,NaN,-0.499334973869143,NaN,NaN,NaN
960,NaN,NaN,NaN,NaN,-0.537170755739651,NaN,NaN,-0.463295351050802,-0.374738630674102,NaN,-0.644379108342912,-0.534308591389801,-0.471737450489083,-0.537496906410373,-0.511585183544655,NaN,NaN,NaN,-0.681915361531715,NaN,NaN,NaN,NaN,NaN,-0.498765218224598,NaN,NaN,NaN
970,NaN,NaN,NaN,NaN,-0.548288253627499,NaN,NaN,-0.346274428817234,-0.391148219342125,NaN,-0.687316895484051,-0.530519027637956,-0.477946785246466,-0.516968172263814,-0.48688558763798,NaN,NaN,NaN,-0.666884706744513,NaN,NaN,NaN,NaN,NaN,-0.501006298833485,NaN,NaN,NaN
980,NaN,NaN,NaN,NaN,-0.562479802354459,NaN,NaN,-0.355488817631279,-0.374098626036899,NaN,-0.648302282923927,-0.536663873569638,-0.45196480086599,-0.513216800923308,NaN,NaN,NaN,NaN,-0.665186208818663,NaN,NaN,NaN,NaN,NaN,-0.487041901038219,NaN,NaN,NaN
990,NaN,NaN,NaN,NaN,-0.562978933343286,NaN,NaN,-0.367957575554357,-0.373731352782953,NaN,-0.660234593993987,-0.548251826832555,-0.474192909485544,-0.518597047302111,NaN,NaN,NaN,NaN,-0.684731081404958,NaN,NaN,NaN,NaN,NaN,-0.499496008101866,NaN,NaN,NaN
1000,NaN,NaN,NaN,NaN,-0.532747949285726,NaN,NaN,-0.362346546834257,-0.384520145491256,NaN,-0.660518219606052,-0.564082894384578,-0.495295531570334,-0.533729005895123,NaN,NaN,NaN,NaN,-0.66625584677816,NaN,NaN,NaN,NaN,NaN,-0.497072230023661,NaN,NaN,NaN
1010,NaN,NaN,NaN,NaN,-0.558885583395031,NaN,NaN,-0.363531638574913,-0.375296365100653,NaN,-0.674674581226173,-0.579356853615154,-0.468605547538372,NaN,NaN,NaN,NaN,NaN,-0.691205884726394,NaN,NaN,NaN,NaN,NaN,-0.499773247441871,NaN,NaN,NaN
1020,NaN,NaN,NaN,NaN,-0.57152489234841,NaN,NaN,-0.3495597275184,-0.376288992132371,NaN,-0.651066787399672,-0.595120427036977,-0.49752196131979,NaN,NaN,NaN,NaN,NaN,-0.682101314747572,NaN,NaN,NaN,NaN,NaN,-0.521603278436368,NaN,NaN,NaN
1030,NaN,NaN,NaN,NaN,-0.532866533592404,NaN,NaN,-0.368401984957103,-0.386980488107528,NaN,-0.686592617099864,-0.575989284703336,-0.523582834943358,NaN,NaN,NaN,NaN,NaN,-0.701035359194507,NaN,NaN,NaN,NaN,NaN,-0.54422458106117,NaN,NaN,NaN
1040,NaN,NaN,NaN,NaN,-0.537833174939573,NaN,NaN,-0.395732975394435,-0.390282942088541,NaN,-0.676220685169735,-0.593752512605984,NaN,NaN,NaN,NaN,NaN,NaN,-0.699738945966379,NaN,NaN,NaN,NaN,NaN,-0.561779566406262,NaN,NaN,NaN
1050,NaN,NaN,NaN,NaN,-0.555905323100484,NaN,NaN,-0.391221637678819,-0.394662171627234,NaN,-0.680408827430719,-0.581822330293278,NaN,NaN,NaN,NaN,NaN,NaN,-0.703131308640311,NaN,NaN,NaN,NaN,NaN,-0.550733820163319,NaN,NaN,NaN
1060,NaN,NaN,NaN,NaN,-0.562218466084093,NaN,NaN,-0.386597601044501,-0.382712329614266,NaN,-0.680961177353377,-0.613379655402932,NaN,NaN,NaN,NaN,NaN,NaN,-0.703328281305996,NaN,NaN,NaN,NaN,NaN,-0.581619084054451,NaN,NaN,NaN
1070,NaN,NaN,NaN,NaN,-0.560400256862377,NaN,NaN,-0.407342341451904,-0.384541182622747,NaN,-0.695491574162565,-0.599453074355941,NaN,NaN,NaN,NaN,NaN,NaN,-0.697278102466024,NaN,NaN,NaN,NaN,NaN,-0.537575219636768,NaN,NaN,NaN
1080,NaN,NaN,NaN,NaN,-0.613387281363097,NaN,NaN,-0.40517877265488,-0.375353090223066,NaN,-0.71821142573072,-0.592507439996375,NaN,NaN,NaN,NaN,NaN,NaN,-0.708882459682662,NaN,NaN,NaN,NaN,NaN,-0.552898015065448,NaN,NaN,NaN
1080,NaN,NaN,NaN,NaN,-0.597467056444279,NaN,NaN,-0.40517877265488,-0.375353090223066,NaN,-0.71821142573072,-0.592507439996375,NaN,NaN,NaN,NaN,NaN,NaN,-0.708882459682662,NaN,NaN,NaN,NaN,NaN,-0.552898015065448,NaN,NaN,NaN
1090,NaN,NaN,NaN,NaN,-0.569650834551427,NaN,NaN,-0.370185507956062,-0.398435707088419,NaN,-0.692356540686335,-0.594900413703468,NaN,NaN,NaN,NaN,NaN,NaN,-0.69238471541601,NaN,NaN,NaN,NaN,NaN,-0.565397577359638,NaN,NaN,NaN
1100,NaN,NaN,NaN,NaN,-0.622751935402077,NaN,NaN,-0.379157343652858,-0.387692870494742,NaN,-0.693998313489772,-0.581754585721036,NaN,NaN,NaN,NaN,NaN,NaN,-0.695829420476628,NaN,NaN,NaN,NaN,NaN,-0.563989466980975,NaN,NaN,NaN
1110,NaN,NaN,NaN,NaN,-0.597459417962011,NaN,NaN,-0.385493902967353,-0.373252883262556,NaN,-0.718406770523136,-0.596249670202365,NaN,NaN,NaN,NaN,NaN,NaN,-0.704188424497729,NaN,NaN,NaN,NaN,NaN,-0.571811648485995,NaN,NaN,NaN
1120,NaN,NaN,NaN,NaN,-0.606958559377308,NaN,NaN,-0.397235377201745,NaN,NaN,-0.712785473679332,-0.601828266678083,NaN,NaN,NaN,NaN,NaN,NaN,-0.720158988266901,NaN,NaN,NaN,NaN,NaN,-0.548337841151728,NaN,NaN,NaN
1130,NaN,NaN,NaN,NaN,-0.62578453808331,NaN,NaN,-0.384112089003053,NaN,NaN,-0.715236174277004,-0.583513314957881,NaN,NaN,NaN,NaN,NaN,NaN,-0.708191615311023,NaN,NaN,NaN,NaN,NaN,-0.555075483395779,NaN,NaN,NaN
1140,NaN,NaN,NaN,NaN,-0.619142689920155,NaN,NaN,-0.39193038865643,NaN,NaN,-0.734522089792328,-0.627993825075021,NaN,NaN,NaN,NaN,NaN,NaN,-0.746312024561762,NaN,NaN,NaN,NaN,NaN,-0.586269041440069,NaN,NaN,NaN
1150,NaN,NaN,NaN,NaN,-0.602800595382332,NaN,NaN,-0.409816708822503,NaN,NaN,-0.729741526882037,-0.622124340168033,NaN,NaN,NaN,NaN,NaN,NaN,-0.735831025122534,NaN,NaN,NaN,NaN,NaN,-0.581109935383962,NaN,NaN,NaN
1160,NaN,NaN,NaN,NaN,-0.612979186056377,NaN,NaN,-0.404564563547957,NaN,NaN,-0.760414165479885,-0.619639203789648,NaN,NaN,NaN,NaN,NaN,NaN,-0.768722705429612,NaN,NaN,NaN,NaN,NaN,-0.57639511350958,NaN,NaN,NaN
1170,NaN,NaN,NaN,NaN,-0.625457335556014,NaN,NaN,-0.413639831807916,NaN,NaN,-0.749260103053969,-0.649745467710511,NaN,NaN,NaN,NaN,NaN,NaN,-0.786851453491915,NaN,NaN,NaN,NaN,NaN,-0.613523271391663,NaN,NaN,NaN
1180,NaN,NaN,NaN,NaN,-0.623130102884831,NaN,NaN,-0.42790112864345,NaN,NaN,-0.778467029603595,-0.613821435164241,NaN,NaN,NaN,NaN,NaN,NaN,-0.795933483686996,NaN,NaN,NaN,NaN,NaN,-0.612616671201222,NaN,NaN,NaN
1190,NaN,NaN,NaN,NaN,-0.634726821619202,NaN,NaN,NaN,NaN,NaN,-0.798750706212489,-0.63935237342787,NaN,NaN,NaN,NaN,NaN,NaN,-0.800621383041911,NaN,NaN,NaN,NaN,NaN,-0.618627280198628,NaN,NaN,NaN
1200,NaN,NaN,NaN,NaN,-0.627546523066696,NaN,NaN,NaN,NaN,NaN,-0.782946435958912,-0.63172941856691,NaN,NaN,NaN,NaN,NaN,NaN,-0.801930694035179,NaN,NaN,NaN,NaN,NaN,-0.599262851103275,NaN,NaN,NaN
1210,NaN,NaN,NaN,NaN,-0.652362449301675,NaN,NaN,NaN,NaN,NaN,-0.793806228985997,-0.630496241954275,NaN,NaN,NaN,NaN,NaN,NaN,-0.818694282528946,NaN,NaN,NaN,NaN,NaN,-0.598030300595745,NaN,NaN,NaN
1220,NaN,NaN,NaN,NaN,-0.661543654545214,NaN,NaN,NaN,NaN,NaN,-0.823711262726468,-0.609333513779511,NaN,NaN,NaN,NaN,NaN,NaN,-0.818887248121966,NaN,NaN,NaN,NaN,NaN,-0.612185910889741,NaN,NaN,NaN
1230,NaN,NaN,NaN,NaN,-0.680172911027571,NaN,NaN,NaN,NaN,NaN,-0.821552076665171,-0.636934230295601,NaN,NaN,NaN,NaN,NaN,NaN,-0.834333386256114,NaN,NaN,NaN,NaN,NaN,-0.600993530831466,NaN,NaN,NaN
1240,NaN,NaN,NaN,NaN,-0.679519758183186,NaN,NaN,NaN,NaN,NaN,-0.830978089004333,-0.644309247535419,NaN,NaN,NaN,NaN,NaN,NaN,-0.873238931307139,NaN,NaN,NaN,NaN,NaN,-0.616182965873016,NaN,NaN,NaN
1250,NaN,NaN,NaN,NaN,-0.693323372187772,NaN,NaN,NaN,NaN,NaN,-0.834932443619522,-0.654404816672688,NaN,NaN,NaN,NaN,NaN,NaN,-0.872150510194525,NaN,NaN,NaN,NaN,NaN,-0.682580159931032,NaN,NaN,NaN
1260,NaN,NaN,NaN,NaN,-0.723678199834882,NaN,NaN,NaN,NaN,NaN,-0.863535178743889,-0.643011957760146,NaN,NaN,NaN,NaN,NaN,NaN,-0.858125881088264,NaN,NaN,NaN,NaN,NaN,-0.653655356341222,NaN,NaN,NaN
1270,NaN,NaN,NaN,NaN,-0.724001019626451,NaN,NaN,NaN,NaN,NaN,-0.859824879898198,-0.6356325577846,NaN,NaN,NaN,NaN,NaN,NaN,-0.864843988853074,NaN,NaN,NaN,NaN,NaN,-0.644733358610696,NaN,NaN,NaN
1280,NaN,NaN,NaN,NaN,-0.732969098692623,NaN,NaN,NaN,NaN,NaN,-0.873048219692492,-0.662561964408293,NaN,NaN,NaN,NaN,NaN,NaN,-0.87397660834055,NaN,NaN,NaN,NaN,NaN,-0.648473710501374,NaN,NaN,NaN
1290,NaN,NaN,NaN,NaN,-0.7380912645476,NaN,NaN,NaN,NaN,NaN,-0.858391349652317,-0.662533038352493,NaN,NaN,NaN,NaN,NaN,NaN,-0.867940078591842,NaN,NaN,NaN,NaN,NaN,-0.656812178275068,NaN,NaN,NaN
1300,NaN,NaN,NaN,NaN,-0.741991273239772,NaN,NaN,NaN,NaN,NaN,-0.854065714710516,-0.686589874759509,NaN,NaN,NaN,NaN,NaN,NaN,-0.870341442107327,NaN,NaN,NaN,NaN,NaN,-0.651178484550207,NaN,NaN,NaN
1310,NaN,NaN,NaN,NaN,-0.799573783982071,NaN,NaN,NaN,NaN,NaN,-0.867538119115141,-0.703993342669457,NaN,NaN,NaN,NaN,NaN,NaN,-0.869973041864194,NaN,NaN,NaN,NaN,NaN,-0.66178720943063,NaN,NaN,NaN
1320,NaN,NaN,NaN,NaN,-0.782336609587717,NaN,NaN,NaN,NaN,NaN,-0.869780201492194,-0.700748114694941,NaN,NaN,NaN,NaN,NaN,NaN,-0.893130916563035,NaN,NaN,NaN,NaN,NaN,-0.642424282987526,NaN,NaN,NaN
1320,NaN,NaN,NaN,NaN,-0.777561305960298,NaN,NaN,NaN,NaN,NaN,-0.869780201492194,-0.700748114694941,NaN,NaN,NaN,NaN,NaN,NaN,-0.893130916563035,NaN,NaN,NaN,NaN,NaN,-0.642424282987526,NaN,NaN,NaN
1330,NaN,NaN,NaN,NaN,-0.800804806793148,NaN,NaN,NaN,NaN,NaN,-0.891686867751408,-0.711025003870298,NaN,NaN,NaN,NaN,NaN,NaN,-0.868856446021905,NaN,NaN,NaN,NaN,NaN,-0.681256573741395,NaN,NaN,NaN
1340,NaN,NaN,NaN,NaN,-0.791935852687025,NaN,NaN,NaN,NaN,NaN,-0.868493305061645,-0.694768810952729,NaN,NaN,NaN,NaN,NaN,NaN,-0.880306656161964,NaN,NaN,NaN,NaN,NaN,-0.66594579953071,NaN,NaN,NaN
1350,NaN,NaN,NaN,NaN,-0.808140992994422,NaN,NaN,NaN,NaN,NaN,-0.860645578468386,-0.714849879950002,NaN,NaN,NaN,NaN,NaN,NaN,-0.898666311786584,NaN,NaN,NaN,NaN,NaN,-0.709554020017101,NaN,NaN,NaN
1360,NaN,NaN,NaN,NaN,-0.821957329454719,NaN,NaN,NaN,NaN,NaN,-0.88084097425763,-0.717524225290785,NaN,NaN,NaN,NaN,NaN,NaN,-0.88797531669551,NaN,NaN,NaN,NaN,NaN,-0.736587986193145,NaN,NaN,NaN
1370,NaN,NaN,NaN,NaN,-0.740484739138776,NaN,NaN,NaN,NaN,NaN,-0.878189544363649,-0.683605106508213,NaN,NaN,NaN,NaN,NaN,NaN,-0.899640406107226,NaN,NaN,NaN,NaN,NaN,-0.69223845726374,NaN,NaN,NaN
1380,NaN,NaN,NaN,NaN,-0.7523053530583,NaN,NaN,NaN,NaN,NaN,-0.895773831427603,-0.709052772793024,NaN,NaN,NaN,NaN,NaN,NaN,-0.893551283529791,NaN,NaN,NaN,NaN,NaN,-0.719778316363732,NaN,NaN,NaN
1390,NaN,NaN,NaN,NaN,-0.753534397377249,NaN,NaN,NaN,NaN,NaN,-0.861980058886831,-0.691966740170751,NaN,NaN,NaN,NaN,NaN,NaN,-0.878717476187254,NaN,NaN,NaN,NaN,NaN,-0.721014247838824,NaN,NaN,NaN
1400,NaN,NaN,NaN,NaN,-0.745513364891231,NaN,NaN,NaN,NaN,NaN,-0.89292117135323,-0.695199946927272,NaN,NaN,NaN,NaN,NaN,NaN,-0.914698359076958,NaN,NaN,NaN,NaN,NaN,-0.723295774837422,NaN,NaN,NaN
1410,NaN,NaN,NaN,NaN,-0.768519471712887,NaN,NaN,NaN,NaN,NaN,-0.895335683075896,-0.681879310399833,NaN,NaN,NaN,NaN,NaN,NaN,-0.911886270613317,NaN,NaN,NaN,NaN,NaN,-0.74175961435133,NaN,NaN,NaN
1420,NaN,NaN,NaN,NaN,-0.754634714486837,NaN,NaN,NaN,NaN,NaN,-0.8844932957707,-0.665279761443287,NaN,NaN,NaN,NaN,NaN,NaN,-0.927812631362153,NaN,NaN,NaN,NaN,NaN,-0.738870765401952,NaN,NaN,NaN
1430,NaN,NaN,NaN,NaN,-0.727471269775308,NaN,NaN,NaN,NaN,NaN,-0.876671615149762,-0.701326260147879,NaN,NaN,NaN,NaN,NaN,NaN,-0.916673345016689,NaN,NaN,NaN,NaN,NaN,-0.761429332295343,NaN,NaN,NaN
1440,NaN,NaN,NaN,NaN,-0.776595100563965,NaN,NaN,NaN,NaN,NaN,-0.896032412835512,-0.708000415334395,NaN,NaN,NaN,NaN,NaN,NaN,-0.932891470743941,NaN,NaN,NaN,NaN,NaN,-0.776627407587326,NaN,NaN,NaN
1450,NaN,NaN,NaN,NaN,-0.757761733817738,NaN,NaN,NaN,NaN,NaN,-0.911485438125802,-0.686419949834311,NaN,NaN,NaN,NaN,NaN,NaN,-0.959737354946774,NaN,NaN,NaN,NaN,NaN,-0.798067750765158,NaN,NaN,NaN
1460,NaN,NaN,NaN,NaN,-0.801805360315481,NaN,NaN,NaN,NaN,NaN,-0.882629631318441,-0.748330975601888,NaN,NaN,NaN,NaN,NaN,NaN,-0.980160903435878,NaN,NaN,NaN,NaN,NaN,-0.7993437529669,NaN,NaN,NaN
1470,NaN,NaN,NaN,NaN,-0.792588204116877,NaN,NaN,NaN,NaN,NaN,-0.923859403736151,-0.760482799121374,NaN,NaN,NaN,NaN,NaN,NaN,-0.979651253881306,NaN,NaN,NaN,NaN,NaN,-0.788726262615022,NaN,NaN,NaN
1480,NaN,NaN,NaN,NaN,-0.778599137780517,NaN,NaN,NaN,NaN,NaN,-0.931328461962574,-0.750808348276986,NaN,NaN,NaN,NaN,NaN,NaN,-0.986097632031024,NaN,NaN,NaN,NaN,NaN,-0.822974211798161,NaN,NaN,NaN
1490,NaN,NaN,NaN,NaN,-0.796478458091529,NaN,NaN,NaN,NaN,NaN,-0.916962355132648,-0.757976625611497,NaN,NaN,NaN,NaN,NaN,NaN,-0.991879086560405,NaN,NaN,NaN,NaN,NaN,-0.813315914465454,NaN,NaN,NaN
1500,NaN,NaN,NaN,NaN,-0.811239461932585,NaN,NaN,NaN,NaN,NaN,-0.927284073433444,-0.771642621714246,NaN,NaN,NaN,NaN,NaN,NaN,-0.996300640804122,NaN,NaN,NaN,NaN,NaN,-0.828753161907126,NaN,NaN,NaN
1510,NaN,NaN,NaN,NaN,-0.83091780760493,NaN,NaN,NaN,NaN,NaN,-0.959541008386192,-0.782727436915671,NaN,NaN,NaN,NaN,NaN,NaN,-1.01560095673684,NaN,NaN,NaN,NaN,NaN,-0.877152338648534,NaN,NaN,NaN
1520,NaN,NaN,NaN,NaN,-0.828309766794649,NaN,NaN,NaN,NaN,NaN,-0.942825504764404,-0.764017037211849,NaN,NaN,NaN,NaN,NaN,NaN,-0.995796000090381,NaN,NaN,NaN,NaN,NaN,-0.856318065211274,NaN,NaN,NaN
1530,NaN,NaN,NaN,NaN,-0.805809502808532,NaN,NaN,NaN,NaN,NaN,-0.959500812438522,-0.77678519859561,NaN,NaN,NaN,NaN,NaN,NaN,-1.01572868217803,NaN,NaN,NaN,NaN,NaN,-0.897017401384962,NaN,NaN,NaN
1540,NaN,NaN,NaN,NaN,-0.85818780288304,NaN,NaN,NaN,NaN,NaN,-0.936481682630704,-0.76744295911935,NaN,NaN,NaN,NaN,NaN,NaN,-1.01346343391213,NaN,NaN,NaN,NaN,NaN,-0.926190142595916,NaN,NaN,NaN
1550,NaN,NaN,NaN,NaN,-0.874782054990406,NaN,NaN,NaN,NaN,NaN,-0.962528531499945,-0.8131269684672,NaN,NaN,NaN,NaN,NaN,NaN,-1.03259971030763,NaN,NaN,NaN,NaN,NaN,-0.958509688059054,NaN,NaN,NaN
1560,NaN,NaN,NaN,NaN,-0.880401711438838,NaN,NaN,NaN,NaN,NaN,-0.968607636395717,-0.792289063620337,NaN,NaN,NaN,NaN,NaN,NaN,-1.03029313910487,NaN,NaN,NaN,NaN,NaN,-0.939648897909275,NaN,NaN,NaN
1560,NaN,NaN,NaN,NaN,-0.861536375766005,NaN,NaN,NaN,NaN,NaN,-0.968607636395717,-0.792289063620337,NaN,NaN,NaN,NaN,NaN,NaN,-1.03029313910487,NaN,NaN,NaN,NaN,NaN,-0.939648897909275,NaN,NaN,NaN
1570,NaN,NaN,NaN,NaN,-0.885101331481297,NaN,NaN,NaN,NaN,NaN,-0.96006931587286,-0.822484860571058,NaN,NaN,NaN,NaN,NaN,NaN,-1.05054763921592,NaN,NaN,NaN,NaN,NaN,-0.961709085139965,NaN,NaN,NaN
1580,NaN,NaN,NaN,NaN,-0.892709547828112,NaN,NaN,NaN,NaN,NaN,-0.991998672635249,-0.794355586126258,NaN,NaN,NaN,NaN,NaN,NaN,-1.03783269676599,NaN,NaN,NaN,NaN,NaN,-0.961340935338874,NaN,NaN,NaN
1590,NaN,NaN,NaN,NaN,-0.918064102266293,NaN,NaN,NaN,NaN,NaN,-0.956981866384525,-0.792310852077953,NaN,NaN,NaN,NaN,NaN,NaN,-1.06164347386718,NaN,NaN,NaN,NaN,NaN,-0.982116354896367,NaN,NaN,NaN
1600,NaN,NaN,NaN,NaN,-0.894010268659355,NaN,NaN,NaN,NaN,NaN,-0.974279772973957,-0.819058938663557,NaN,NaN,NaN,NaN,NaN,NaN,-1.06860075378168,NaN,NaN,NaN,NaN,NaN,-0.987380646609929,NaN,NaN,NaN
1610,NaN,NaN,NaN,NaN,-0.893580096886672,NaN,NaN,NaN,NaN,NaN,-0.983059519624877,NaN,NaN,NaN,NaN,NaN,NaN,NaN,-1.08334052013761,NaN,NaN,NaN,NaN,NaN,-1.02946743169385,NaN,NaN,NaN
1620,NaN,NaN,NaN,NaN,-0.921673844875667,NaN,NaN,NaN,NaN,NaN,-1.00584398523975,NaN,NaN,NaN,NaN,NaN,NaN,NaN,-1.07217957055555,NaN,NaN,NaN,NaN,NaN,-1.05987860880031,NaN,NaN,NaN
1630,NaN,NaN,NaN,NaN,-0.916953937775631,NaN,NaN,NaN,NaN,NaN,-1.02219734966945,NaN,NaN,NaN,NaN,NaN,NaN,NaN,-1.09769210132912,NaN,NaN,NaN,NaN,NaN,-1.06745197613705,NaN,NaN,NaN
1640,NaN,NaN,NaN,NaN,-0.907709241717927,NaN,NaN,NaN,NaN,NaN,-1.00778716504021,NaN,NaN,NaN,NaN,NaN,NaN,NaN,-1.08119924068228,NaN,NaN,NaN,NaN,NaN,-1.0661271377372,NaN,NaN,NaN
1650,NaN,NaN,NaN,NaN,-0.942653150551404,NaN,NaN,NaN,NaN,NaN,-1.01759685458704,NaN,NaN,NaN,NaN,NaN,NaN,NaN,-1.10060474227245,NaN,NaN,NaN,NaN,NaN,-1.08642296078511,NaN,NaN,NaN
1660,NaN,NaN,NaN,NaN,-0.938757123887693,NaN,NaN,NaN,NaN,NaN,-1.02194327621829,NaN,NaN,NaN,NaN,NaN,NaN,NaN,-1.11767361961488,NaN,NaN,NaN,NaN,NaN,-1.12298374222204,NaN,NaN,NaN
1670,NaN,NaN,NaN,NaN,-0.948559037209132,NaN,NaN,NaN,NaN,NaN,-1.05092167440499,NaN,NaN,NaN,NaN,NaN,NaN,NaN,-1.13032845597483,NaN,NaN,NaN,NaN,NaN,-1.14343358712551,NaN,NaN,NaN
1680,NaN,NaN,NaN,NaN,-0.983911085176686,NaN,NaN,NaN,NaN,NaN,-1.04935628642423,NaN,NaN,NaN,NaN,NaN,NaN,NaN,-1.14282050500777,NaN,NaN,NaN,NaN,NaN,-1.14007891597883,NaN,NaN,NaN
1690,NaN,NaN,NaN,NaN,-0.992138356683928,NaN,NaN,NaN,NaN,NaN,-1.06435576117726,NaN,NaN,NaN,NaN,NaN,NaN,NaN,-1.14457109487827,NaN,NaN,NaN,NaN,NaN,-1.19256029799765,NaN,NaN,NaN
1700,NaN,NaN,NaN,NaN,-0.942089706046305,NaN,NaN,NaN,NaN,NaN,-1.06203679309344,NaN,NaN,NaN,NaN,NaN,NaN,NaN,-1.15798727504456,NaN,NaN,NaN,NaN,NaN,-1.19579600917458,NaN,NaN,NaN
1710,NaN,NaN,NaN,NaN,-0.99374906215211,NaN,NaN,NaN,NaN,NaN,-1.0715808888552,NaN,NaN,NaN,NaN,NaN,NaN,NaN,-1.15537015571028,NaN,NaN,NaN,NaN,NaN,-1.22816689525624,NaN,NaN,NaN
1720,NaN,NaN,NaN,NaN,-0.993309398626052,NaN,NaN,NaN,NaN,NaN,-1.08494810760237,NaN,NaN,NaN,NaN,NaN,NaN,NaN,-1.18729525495796,NaN,NaN,NaN,NaN,NaN,-1.24283904226095,NaN,NaN,NaN
1730,NaN,NaN,NaN,NaN,-1.00571279117628,NaN,NaN,NaN,NaN,NaN,-1.10089124796799,NaN,NaN,NaN,NaN,NaN,NaN,NaN,-1.2052344183948,NaN,NaN,NaN,NaN,NaN,-1.27547915353728,NaN,NaN,NaN
1740,NaN,NaN,NaN,NaN,-1.03803989998908,NaN,NaN,NaN,NaN,NaN,-1.10494465241062,NaN,NaN,NaN,NaN,NaN,NaN,NaN,-1.19138998233744,NaN,NaN,NaN,NaN,NaN,-1.31252954916546,NaN,NaN,NaN
1750,NaN,NaN,NaN,NaN,-1.03751646360012,NaN,NaN,NaN,NaN,NaN,-1.1113847695093,NaN,NaN,NaN,NaN,NaN,NaN,NaN,-1.21566908605634,NaN,NaN,NaN,NaN,NaN,-1.31556615891936,NaN,NaN,NaN
1760,NaN,NaN,NaN,NaN,-0.995496809505433,NaN,NaN,NaN,NaN,NaN,-1.10207583882456,NaN,NaN,NaN,NaN,NaN,NaN,NaN,-1.22164463316793,NaN,NaN,NaN,NaN,NaN,-1.36450378605012,NaN,NaN,NaN
1770,NaN,NaN,NaN,NaN,-1.01873854472189,NaN,NaN,NaN,NaN,NaN,-1.12749695825297,NaN,NaN,NaN,NaN,NaN,NaN,NaN,-1.22521092783972,NaN,NaN,NaN,NaN,NaN,-1.36055932389557,NaN,NaN,NaN
1780,NaN,NaN,NaN,NaN,-1.05732284776621,NaN,NaN,NaN,NaN,NaN,-1.15417780115042,NaN,NaN,NaN,NaN,NaN,NaN,NaN,-1.23901153653981,NaN,NaN,NaN,NaN,NaN,-1.3957539439958,NaN,NaN,NaN
1790,NaN,NaN,NaN,NaN,-1.06952463447298,NaN,NaN,NaN,NaN,NaN,-1.15137785912579,NaN,NaN,NaN,NaN,NaN,NaN,NaN,-1.24570960894129,NaN,NaN,NaN,NaN,NaN,-1.44905928033134,NaN,NaN,NaN
1800,NaN,NaN,NaN,NaN,-1.08575390487109,NaN,NaN,NaN,NaN,NaN,-1.17139944813819,NaN,NaN,NaN,NaN,NaN,NaN,NaN,-1.26309028662546,NaN,NaN,NaN,NaN,NaN,-1.50785430621785,NaN,NaN,NaN
1800,NaN,NaN,NaN,NaN,-1.07726391966225,NaN,NaN,NaN,NaN,NaN,-1.17139944813819,NaN,NaN,NaN,NaN,NaN,NaN,NaN,-1.26309028662546,NaN,NaN,NaN,NaN,NaN,-1.50785430621785,NaN,NaN,NaN
1810,NaN,NaN,NaN,NaN,-1.10106881137546,NaN,NaN,NaN,NaN,NaN,-1.18031518481768,NaN,NaN,NaN,NaN,NaN,NaN,NaN,-1.28550109271433,NaN,NaN,NaN,NaN,NaN,-1.53012987360428,NaN,NaN,NaN
1820,NaN,NaN,NaN,NaN,-1.08837490605702,NaN,NaN,NaN,NaN,NaN,-1.17000573817692,NaN,NaN,NaN,NaN,NaN,NaN,NaN,-1.28146146258399,NaN,NaN,NaN,NaN,NaN,-1.5352276213602,NaN,NaN,NaN
1830,NaN,NaN,NaN,NaN,-1.11338805539972,NaN,NaN,NaN,NaN,NaN,-1.18809391462849,NaN,NaN,NaN,NaN,NaN,NaN,NaN,-1.28701125822493,NaN,NaN,NaN,NaN,NaN,-1.56258215334944,NaN,NaN,NaN
1840,NaN,NaN,NaN,NaN,-1.1058062982546,NaN,NaN,NaN,NaN,NaN,-1.21334974230947,NaN,NaN,NaN,NaN,NaN,NaN,NaN,-1.31113258345765,NaN,NaN,NaN,NaN,NaN,-1.59964256665928,NaN,NaN,NaN
1850,NaN,NaN,NaN,NaN,-1.12235989109652,NaN,NaN,NaN,NaN,NaN,-1.21052851271131,NaN,NaN,NaN,NaN,NaN,NaN,NaN,-1.33437360491429,NaN,NaN,NaN,NaN,NaN,-1.6115360592129,NaN,NaN,NaN
1860,NaN,NaN,NaN,NaN,-1.12971888004568,NaN,NaN,NaN,NaN,NaN,-1.23981770947159,NaN,NaN,NaN,NaN,NaN,NaN,NaN,-1.33502099759172,NaN,NaN,NaN,NaN,NaN,-1.6324567351545,NaN,NaN,NaN
1870,NaN,NaN,NaN,NaN,-1.12021235059015,NaN,NaN,NaN,NaN,NaN,-1.24209673204977,NaN,NaN,NaN,NaN,NaN,NaN,NaN,-1.34900943782297,NaN,NaN,NaN,NaN,NaN,-1.68011209903248,NaN,NaN,NaN
1880,NaN,NaN,NaN,NaN,-1.15845472511513,NaN,NaN,NaN,NaN,NaN,-1.25381115854367,NaN,NaN,NaN,NaN,NaN,NaN,NaN,-1.36977609190901,NaN,NaN,NaN,NaN,NaN,-1.72335843076882,NaN,NaN,NaN
1890,NaN,NaN,NaN,NaN,-1.18612431319265,NaN,NaN,NaN,NaN,NaN,-1.28309910309374,NaN,NaN,NaN,NaN,NaN,NaN,NaN,-1.39463371674391,NaN,NaN,NaN,NaN,NaN,-1.7016626367086,NaN,NaN,NaN
1900,NaN,NaN,NaN,NaN,-1.19620009740864,NaN,NaN,NaN,NaN,NaN,-1.29518042717853,NaN,NaN,NaN,NaN,NaN,NaN,NaN,-1.41913446166959,NaN,NaN,NaN,NaN,NaN,NaN,NaN,NaN,NaN
1910,NaN,NaN,NaN,NaN,-1.15577699880679,NaN,NaN,NaN,NaN,NaN,-1.29187208780954,NaN,NaN,NaN,NaN,NaN,NaN,NaN,-1.434883509453,NaN,NaN,NaN,NaN,NaN,NaN,NaN,NaN,NaN
1920,NaN,NaN,NaN,NaN,-1.1687178399782,NaN,NaN,NaN,NaN,NaN,-1.32065038280504,NaN,NaN,NaN,NaN,NaN,NaN,NaN,-1.45325969425236,NaN,NaN,NaN,NaN,NaN,NaN,NaN,NaN,NaN
1930,NaN,NaN,NaN,NaN,-1.22346709990435,NaN,NaN,NaN,NaN,NaN,-1.34557187036054,NaN,NaN,NaN,NaN,NaN,NaN,NaN,-1.45965848841418,NaN,NaN,NaN,NaN,NaN,NaN,NaN,NaN,NaN
1940,NaN,NaN,NaN,NaN,-1.23015841037071,NaN,NaN,NaN,NaN,NaN,-1.3589667629533,NaN,NaN,NaN,NaN,NaN,NaN,NaN,-1.49086732342301,NaN,NaN,NaN,NaN,NaN,NaN,NaN,NaN,NaN
1950,NaN,NaN,NaN,NaN,-1.20647636047889,NaN,NaN,NaN,NaN,NaN,-1.36672295298037,NaN,NaN,NaN,NaN,NaN,NaN,NaN,-1.53373298325618,NaN,NaN,NaN,NaN,NaN,NaN,NaN,NaN,NaN
1960,NaN,NaN,NaN,NaN,-1.22887301659241,NaN,NaN,NaN,NaN,NaN,-1.39305317701963,NaN,NaN,NaN,NaN,NaN,NaN,NaN,-1.55769277337209,NaN,NaN,NaN,NaN,NaN,NaN,NaN,NaN,NaN
1970,NaN,NaN,NaN,NaN,-1.25117938834996,NaN,NaN,NaN,NaN,NaN,-1.39970742206385,NaN,NaN,NaN,NaN,NaN,NaN,NaN,-1.61347372928844,NaN,NaN,NaN,NaN,NaN,NaN,NaN,NaN,NaN
1980,NaN,NaN,NaN,NaN,-1.26906220232745,NaN,NaN,NaN,NaN,NaN,-1.43612920816771,NaN,NaN,NaN,NaN,NaN,NaN,NaN,-1.63619633571905,NaN,NaN,NaN,NaN,NaN,NaN,NaN,NaN,NaN
1990,NaN,NaN,NaN,NaN,-1.30793569079715,NaN,NaN,NaN,NaN,NaN,-1.47693623441927,NaN,NaN,NaN,NaN,NaN,NaN,NaN,-1.65322263791441,NaN,NaN,NaN,NaN,NaN,NaN,NaN,NaN,NaN
2000,NaN,NaN,NaN,NaN,-1.31308189908812,NaN,NaN,NaN,NaN,NaN,-1.4698712644269,NaN,NaN,NaN,NaN,NaN,NaN,NaN,-1.66437607423523,NaN,NaN,NaN,NaN,NaN,NaN,NaN,NaN,NaN
2010,NaN,NaN,NaN,NaN,-1.31689800969637,NaN,NaN,NaN,NaN,NaN,-1.50103376765804,NaN,NaN,NaN,NaN,NaN,NaN,NaN,-1.72014200362908,NaN,NaN,NaN,NaN,NaN,NaN,NaN,NaN,NaN
2020,NaN,NaN,NaN,NaN,-1.33816730095982,NaN,NaN,NaN,NaN,NaN,-1.52991098725995,NaN,NaN,NaN,NaN,NaN,NaN,NaN,-1.74496331436795,NaN,NaN,NaN,NaN,NaN,NaN,NaN,NaN,NaN
2030,NaN,NaN,NaN,NaN,-1.35581845604887,NaN,NaN,NaN,NaN,NaN,-1.56127259191413,NaN,NaN,NaN,NaN,NaN,NaN,NaN,-1.77065741562166,NaN,NaN,NaN,NaN,NaN,NaN,NaN,NaN,NaN
2040,NaN,NaN,NaN,NaN,-1.38736551303482,NaN,NaN,NaN,NaN,NaN,-1.59297980658566,NaN,NaN,NaN,NaN,NaN,NaN,NaN,-1.81078824836101,NaN,NaN,NaN,NaN,NaN,NaN,NaN,NaN,NaN
2040,NaN,NaN,NaN,NaN,-1.38645640842396,NaN,NaN,NaN,NaN,NaN,-1.59297980658566,NaN,NaN,NaN,NaN,NaN,NaN,NaN,-1.81078824836101,NaN,NaN,NaN,NaN,NaN,NaN,NaN,NaN,NaN
2050,NaN,NaN,NaN,NaN,-1.4323573005798,NaN,NaN,NaN,NaN,NaN,-1.61403822565011,NaN,NaN,NaN,NaN,NaN,NaN,NaN,-1.83753671060967,NaN,NaN,NaN,NaN,NaN,NaN,NaN,NaN,NaN
2060,NaN,NaN,NaN,NaN,-1.44044056791314,NaN,NaN,NaN,NaN,NaN,-1.65673358489502,NaN,NaN,NaN,NaN,NaN,NaN,NaN,-1.86212260582948,NaN,NaN,NaN,NaN,NaN,NaN,NaN,NaN,NaN
2070,NaN,NaN,NaN,NaN,-1.44998992295777,NaN,NaN,NaN,NaN,NaN,-1.68501350022782,NaN,NaN,NaN,NaN,NaN,NaN,NaN,-1.89333519746893,NaN,NaN,NaN,NaN,NaN,NaN,NaN,NaN,NaN
2080,NaN,NaN,NaN,NaN,-1.50460093887698,NaN,NaN,NaN,NaN,NaN,-1.71090169406373,NaN,NaN,NaN,NaN,NaN,NaN,NaN,-1.92346337506843,NaN,NaN,NaN,NaN,NaN,NaN,NaN,NaN,NaN
2090,NaN,NaN,NaN,NaN,-1.52576166351541,NaN,NaN,NaN,NaN,NaN,-1.76699445032182,NaN,NaN,NaN,NaN,NaN,NaN,NaN,-1.96630649511786,NaN,NaN,NaN,NaN,NaN,NaN,NaN,NaN,NaN
2100,NaN,NaN,NaN,NaN,-1.53276815529108,NaN,NaN,NaN,NaN,NaN,-1.76714847217738,NaN,NaN,NaN,NaN,NaN,NaN,NaN,-1.99197179553679,NaN,NaN,NaN,NaN,NaN,NaN,NaN,NaN,NaN
2110,NaN,NaN,NaN,NaN,-1.56384062460827,NaN,NaN,NaN,NaN,NaN,-1.81292426853346,NaN,NaN,NaN,NaN,NaN,NaN,NaN,-2.02824957746676,NaN,NaN,NaN,NaN,NaN,NaN,NaN,NaN,NaN
2120,NaN,NaN,NaN,NaN,-1.56956259915278,NaN,NaN,NaN,NaN,NaN,-1.8453076767172,NaN,NaN,NaN,NaN,NaN,NaN,NaN,-2.05530483121633,NaN,NaN,NaN,NaN,NaN,NaN,NaN,NaN,NaN
2130,NaN,NaN,NaN,NaN,-1.60600905379774,NaN,NaN,NaN,NaN,NaN,-1.87931394933023,NaN,NaN,NaN,NaN,NaN,NaN,NaN,-2.08462157660118,NaN,NaN,NaN,NaN,NaN,NaN,NaN,NaN,NaN
2140,NaN,NaN,NaN,NaN,-1.66800360198618,NaN,NaN,NaN,NaN,NaN,-1.91478906451701,NaN,NaN,NaN,NaN,NaN,NaN,NaN,-2.12503791326791,NaN,NaN,NaN,NaN,NaN,NaN,NaN,NaN,NaN
2150,NaN,NaN,NaN,NaN,-1.66062733253616,NaN,NaN,NaN,NaN,NaN,-1.94232641919658,NaN,NaN,NaN,NaN,NaN,NaN,NaN,-2.1581538644232,NaN,NaN,NaN,NaN,NaN,NaN,NaN,NaN,NaN
2160,NaN,NaN,NaN,NaN,-1.67194468317317,NaN,NaN,NaN,NaN,NaN,-1.97130131119471,NaN,NaN,NaN,NaN,NaN,NaN,NaN,-2.17699211478924,NaN,NaN,NaN,NaN,NaN,NaN,NaN,NaN,NaN
2170,NaN,NaN,NaN,NaN,-1.71236477647052,NaN,NaN,NaN,NaN,NaN,-2.0124351643105,NaN,NaN,NaN,NaN,NaN,NaN,NaN,-2.19944299160476,NaN,NaN,NaN,NaN,NaN,NaN,NaN,NaN,NaN
2180,NaN,NaN,NaN,NaN,-1.76654954003499,NaN,NaN,NaN,NaN,NaN,-2.05279765593829,NaN,NaN,NaN,NaN,NaN,NaN,NaN,-2.22480400494319,NaN,NaN,NaN,NaN,NaN,NaN,NaN,NaN,NaN
2190,NaN,NaN,NaN,NaN,-1.77876672892732,NaN,NaN,NaN,NaN,NaN,-2.06502047977656,NaN,NaN,NaN,NaN,NaN,NaN,NaN,-2.25712104598592,NaN,NaN,NaN,NaN,NaN,NaN,NaN,NaN,NaN
2200,NaN,NaN,NaN,NaN,-1.80630934288977,NaN,NaN,NaN,NaN,NaN,-2.08534510365925,NaN,NaN,NaN,NaN,NaN,NaN,NaN,-2.25647991435953,NaN,NaN,NaN,NaN,NaN,NaN,NaN,NaN,NaN
2210,NaN,NaN,NaN,NaN,-1.82233149771951,NaN,NaN,NaN,NaN,NaN,-2.12184703121641,NaN,NaN,NaN,NaN,NaN,NaN,NaN,NaN,NaN,NaN,NaN,NaN,NaN,NaN,NaN,NaN,NaN
2220,NaN,NaN,NaN,NaN,-1.85558519199766,NaN,NaN,NaN,NaN,NaN,-2.16548154811717,NaN,NaN,NaN,NaN,NaN,NaN,NaN,NaN,NaN,NaN,NaN,NaN,NaN,NaN,NaN,NaN,NaN
2230,NaN,NaN,NaN,NaN,-1.91005859001503,NaN,NaN,NaN,NaN,NaN,-2.17522123911338,NaN,NaN,NaN,NaN,NaN,NaN,NaN,NaN,NaN,NaN,NaN,NaN,NaN,NaN,NaN,NaN,NaN
2240,NaN,NaN,NaN,NaN,-1.90335012426882,NaN,NaN,NaN,NaN,NaN,-2.22885966336419,NaN,NaN,NaN,NaN,NaN,NaN,NaN,NaN,NaN,NaN,NaN,NaN,NaN,NaN,NaN,NaN,NaN
2250,NaN,NaN,NaN,NaN,-1.91915639805873,NaN,NaN,NaN,NaN,NaN,-2.21624114110026,NaN,NaN,NaN,NaN,NaN,NaN,NaN,NaN,NaN,NaN,NaN,NaN,NaN,NaN,NaN,NaN,NaN
2260,NaN,NaN,NaN,NaN,-1.9798555347872,NaN,NaN,NaN,NaN,NaN,-2.25413928303912,NaN,NaN,NaN,NaN,NaN,NaN,NaN,NaN,NaN,NaN,NaN,NaN,NaN,NaN,NaN,NaN,NaN
2270,NaN,NaN,NaN,NaN,-1.98965295267399,NaN,NaN,NaN,NaN,NaN,-2.28659281499449,NaN,NaN,NaN,NaN,NaN,NaN,NaN,NaN,NaN,NaN,NaN,NaN,NaN,NaN,NaN,NaN,NaN
2280,NaN,NaN,NaN,NaN,-2.05316280043488,NaN,NaN,NaN,NaN,NaN,-2.34227735072484,NaN,NaN,NaN,NaN,NaN,NaN,NaN,NaN,NaN,NaN,NaN,NaN,NaN,NaN,NaN,NaN,NaN
2280,NaN,NaN,NaN,NaN,-2.03480001428474,NaN,NaN,NaN,NaN,NaN,-2.34227735072484,NaN,NaN,NaN,NaN,NaN,NaN,NaN,NaN,NaN,NaN,NaN,NaN,NaN,NaN,NaN,NaN,NaN
2290,NaN,NaN,NaN,NaN,-2.06271353291074,NaN,NaN,NaN,NaN,NaN,-2.3329671678299,NaN,NaN,NaN,NaN,NaN,NaN,NaN,NaN,NaN,NaN,NaN,NaN,NaN,NaN,NaN,NaN,NaN
2300,NaN,NaN,NaN,NaN,-2.0899501066984,NaN,NaN,NaN,NaN,NaN,NaN,NaN,NaN,NaN,NaN,NaN,NaN,NaN,NaN,NaN,NaN,NaN,NaN,NaN,NaN,NaN,NaN,NaN
2310,NaN,NaN,NaN,NaN,-2.12191815675621,NaN,NaN,NaN,NaN,NaN,NaN,NaN,NaN,NaN,NaN,NaN,NaN,NaN,NaN,NaN,NaN,NaN,NaN,NaN,NaN,NaN,NaN,NaN
2320,NaN,NaN,NaN,NaN,-2.10872186470241,NaN,NaN,NaN,NaN,NaN,NaN,NaN,NaN,NaN,NaN,NaN,NaN,NaN,NaN,NaN,NaN,NaN,NaN,NaN,NaN,NaN,NaN,NaN
2330,NaN,NaN,NaN,NaN,-2.17268814308404,NaN,NaN,NaN,NaN,NaN,NaN,NaN,NaN,NaN,NaN,NaN,NaN,NaN,NaN,NaN,NaN,NaN,NaN,NaN,NaN,NaN,NaN,NaN
2340,NaN,NaN,NaN,NaN,-2.15777469517228,NaN,NaN,NaN,NaN,NaN,NaN,NaN,NaN,NaN,NaN,NaN,NaN,NaN,NaN,NaN,NaN,NaN,NaN,NaN,NaN,NaN,NaN,NaN
2350,NaN,NaN,NaN,NaN,-2.20725415365996,NaN,NaN,NaN,NaN,NaN,NaN,NaN,NaN,NaN,NaN,NaN,NaN,NaN,NaN,NaN,NaN,NaN,NaN,NaN,NaN,NaN,NaN,NaN
2360,NaN,NaN,NaN,NaN,-2.22620760736511,NaN,NaN,NaN,NaN,NaN,NaN,NaN,NaN,NaN,NaN,NaN,NaN,NaN,NaN,NaN,NaN,NaN,NaN,NaN,NaN,NaN,NaN,NaN
2370,NaN,NaN,NaN,NaN,-2.28235671308255,NaN,NaN,NaN,NaN,NaN,NaN,NaN,NaN,NaN,NaN,NaN,NaN,NaN,NaN,NaN,NaN,NaN,NaN,NaN,NaN,NaN,NaN,NaN
2380,NaN,NaN,NaN,NaN,-2.29311069434708,NaN,NaN,NaN,NaN,NaN,NaN,NaN,NaN,NaN,NaN,NaN,NaN,NaN,NaN,NaN,NaN,NaN,NaN,NaN,NaN,NaN,NaN,NaN
2390,NaN,NaN,NaN,NaN,-2.28992006273762,NaN,NaN,NaN,NaN,NaN,NaN,NaN,NaN,NaN,NaN,NaN,NaN,NaN,NaN,NaN,NaN,NaN,NaN,NaN,NaN,NaN,NaN,NaN
2400,NaN,NaN,NaN,NaN,-2.30655817976856,NaN,NaN,NaN,NaN,NaN,NaN,NaN,NaN,NaN,NaN,NaN,NaN,NaN,NaN,NaN,NaN,NaN,NaN,NaN,NaN,NaN,NaN,NaN
